# Vectors in Bohr - hack for lazy visualisation
%block lattice_cart
0.0000000     5.1315707     5.1315707 
5.1315707     0.0000000     5.1315707 
5.1315707     5.1315707     0.0000000 
%endblock lattice_cart

%block positions_frac
Si 0.00 0.00 0.00
Si 0.25 0.25 0.25 
%endblock positions_frac
