%BLOCK LATTICE_CART
5.1380399     2.9664487     0.0000000 
0.0000000     5.9328974     0.0000000 
-1.7126800    -2.9664487     9.6883809 
%ENDBLOCK LATTICE_CART

%BLOCK POSITIONS_FRAC
Mn  0.00  0.00  0.00  spin=-4.5
Mn  0.50  0.50  0.50  spin=+4.5
O   0.25  0.25  0.75
O   0.75  0.75  0.25
%ENDBLOCK POSITIONS_FRAC
